
<<< setup



Le degré maximum du graphe est : 50


Le nombre d'arrètes du graphe simple correspondant est : 699

<<< generate

 ! ----------------------------------------------------------------------------
 ! Minimization problem - 51 variables, 863 constraints
 ! Preprocessing : 699 extractables eliminated, 273 constraints generated
 ! Initial process time : 0,00s (0,00s extraction + 0,00s propagation)
 !  . Log search space  : 336,6 (before), 245,8 (after)
 !  . Memory usage      : 1,0 Mb (before), 1,2 Mb (after)
 !  . Variables fixed   : 9
 ! ----------------------------------------------------------------------------
 !   Branches  Non-fixed                Branch decision                   Best
 *         54      0,00s                         -                          13
 *        383      0,02s                  c(13)  =    4                     11
        1 000         25                  c(15)  =    8                     11
        2 000         22                  c(29)  =    9                     11
        3 000         23                  c(11)  =    8                     11
 ! Search terminated, replaying optimal solution
 ! ----------------------------------------------------------------------------
 ! Solution status        : Terminated normally, optimal found (tol. = 0)
 ! Number of branches     : 3 447
 ! Number of fails        : 1 720
 ! Total memory usage     : 1,9 Mb (1,3 Mb CP Optimizer + 0,6 Mb Concert)
 ! Time spent in solve    : 0,16s (0,16s engine + 0,00s extraction)
 ! Search speed (br. / s) : 21 543,8
 ! ----------------------------------------------------------------------------

<<< solve


OBJECTIVE: 11
coloration : [1 2 3 4 5 6 7 8 9 10 3 7 4 2 7 1 3 4 8 11 7 6 8 4 11 11 5 11 10 5 2 9 11 3
     8 7 5 6 9 4 6 2 9 6 10 2 1 1 10 8]
la matrice d'adjacence était :
 [[0 1 1 2 1 1 1 2 2 0 2 0 2 1 2 0 0 1 0 0 1 0 0 0 1 0 1 1 0 1 2 1 1 1 1 1 3
         0 5 2 2 1 0 0 0 1 0 0 1 0]
         [1 0 1 2 2 1 2 2 1 1 1 1 1 0 0 5 1 1 1 0 0 0 2 1 2 0 1 3 1 0 0 3 1
         0 0 1 1 1 0 2 0 0 1 2 0 0 1 0 1 1]
         [1 1 0 2 2 2 1 1 2 1 0 2 0 1 2 0 0 0 0 0 0 1 1 1 0 1 1 0 1 2 0 1 0
         0 2 1 2 1 4 1 0 1 1 2 0 0 1 0 0 1]
         [2 2 2 0 1 1 1 2 2 2 1 2 0 0 0 1 1 0 1 0 3 0 2 0 0 1 1 1 2 2 0 0 0
         1 1 1 1 1 1 0 1 1 0 3 1 1 0 1 2 0]
         [1 2 2 1 0 2 1 2 1 0 3 2 1 3 1 2 1 1 0 1 0 2 0 1 2 1 0 3 3 0 0 1 1
         0 0 0 0 0 1 3 2 0 2 1 1 0 1 1 2 1]
         [1 1 2 1 2 0 2 1 2 0 1 1 1 0 0 0 0 1 2 1 0 0 1 0 2 0 0 1 1 0 0 2 1
         2 0 0 0 0 0 0 0 1 1 0 1 1 3 1 1 0]
         [1 2 1 1 1 2 0 1 1 1 1 0 0 0 0 0 1 2 2 4 0 1 0 3 2 2 0 1 2 0 0 1 0
         1 1 0 0 0 0 2 1 3 0 1 2 0 0 1 0 1]
         [2 2 1 2 2 1 1 0 1 0 0 2 0 1 0 1 0 4 0 0 0 1 0 1 2 1 1 0 1 1 1 2 2
         1 0 1 1 1 1 2 0 1 3 0 1 1 1 2 1 0]
         [2 1 2 2 1 2 1 1 0 0 0 1 0 1 0 0 3 0 2 2 1 1 1 1 1 1 0 0 0 1 1 0 1
         2 0 2 0 1 0 1 0 2 0 0 0 0 2 0 0 0]
         [0 1 1 2 0 0 1 0 0 0 1 1 0 2 1 1 0 1 1 1 0 1 1 1 1 0 0 2 0 0 1 1 1
         1 0 1 3 0 2 1 0 2 0 2 0 2 2 1 0 2]
         [2 1 0 1 3 1 1 0 0 1 0 0 1 0 0 1 0 1 1 0 0 1 2 0 2 0 1 0 3 0 1 1 0
         0 2 2 0 1 1 0 2 1 0 1 1 2 1 1 2 1]
         [0 1 2 2 2 1 0 2 1 1 0 0 0 3 0 1 1 0 1 3 0 0 1 1 0 0 0 1 2 0 0 0 0
         2 0 0 1 1 0 0 0 0 1 0 1 1 0 1 1 3]
         [2 1 0 0 1 1 0 0 0 0 1 0 0 1 0 0 0 0 1 0 0 0 0 0 1 0 1 0 0 0 1 1 0
         1 1 0 1 1 0 0 1 1 0 1 0 0 2 0 1 0]
         [1 0 1 0 3 0 0 1 1 2 0 3 1 0 2 3 0 1 1 1 1 0 0 2 0 1 2 0 1 2 0 0 0
         1 1 0 0 3 0 0 2 0 0 1 0 0 1 1 0 0]
         [2 0 2 0 1 0 0 0 0 1 0 0 0 2 0 1 1 0 0 1 0 0 1 1 0 1 1 2 1 2 1 1 0
         1 1 0 0 1 0 1 1 0 2 2 0 0 0 1 2 1]
         [0 5 0 1 2 0 0 1 0 1 1 1 0 3 1 0 4 1 2 0 0 0 0 0 2 0 0 0 1 2 1 0 3
         1 1 0 1 0 0 1 0 2 1 1 1 1 0 0 1 0]
         [0 1 0 1 1 0 1 0 3 0 0 1 0 0 1 4 0 0 2 0 0 1 0 0 1 0 0 0 1 1 0 2 0
         0 0 1 0 1 0 2 1 2 0 3 1 2 0 3 1 0]
         [1 1 0 0 1 1 2 4 0 1 1 0 0 1 0 1 0 0 1 0 1 0 0 0 0 0 0 0 1 0 1 0 1
         0 0 2 1 0 0 0 1 0 1 1 0 0 2 0 0 2]
         [0 1 0 1 0 2 2 0 2 1 1 1 1 1 0 2 2 1 0 0 1 0 0 1 0 1 0 1 1 1 1 0 0
         1 0 2 1 0 0 2 1 0 0 0 1 1 0 1 1 0]
         [0 0 0 0 1 1 4 0 2 1 0 3 0 1 1 0 0 0 0 0 1 1 1 0 0 0 2 0 1 1 0 0 0
         1 0 0 2 0 1 3 0 2 0 3 0 1 0 1 1 0]
         [1 0 0 3 0 0 0 0 1 0 0 0 0 1 0 0 0 1 1 1 0 1 0 0 0 2 0 0 2 1 0 0 2
         1 1 0 1 0 0 1 0 3 1 3 0 0 1 0 0 0]
         [0 0 1 0 2 0 1 1 1 1 1 0 0 0 0 0 1 0 0 1 1 0 0 1 0 1 0 0 0 0 2 1 3
         1 1 2 5 0 2 0 0 2 0 0 3 1 1 1 1 2]
         [0 2 1 2 0 1 0 0 1 1 2 1 0 0 1 0 0 0 0 1 0 0 0 0 1 0 1 1 1 0 1 2 0
         0 0 2 0 1 2 0 0 0 2 1 1 1 0 1 0 0]
         [0 1 1 0 1 0 3 1 1 1 0 1 0 2 1 0 0 0 1 0 0 1 0 0 1 3 0 1 2 0 1 1 1
         0 0 0 0 0 0 0 1 0 0 2 0 1 1 0 1 2]
         [1 2 0 0 2 2 2 2 1 1 2 0 1 0 0 2 1 0 0 0 0 0 1 1 0 0 0 0 1 0 0 1 0
         1 0 0 1 1 2 1 0 0 2 0 1 0 3 0 2 3]
         [0 0 1 1 1 0 2 1 1 0 0 0 0 1 1 0 0 0 1 0 2 1 0 3 0 0 1 0 1 0 0 0 0
         0 1 0 0 2 0 2 0 0 0 0 1 1 2 1 1 1]
         [1 1 1 1 0 0 0 1 0 0 1 0 1 2 1 0 0 0 0 2 0 0 1 0 0 1 0 0 1 0 2 2 0
         1 0 1 0 3 0 1 1 0 0 1 0 2 0 1 1 1]
         [1 3 0 1 3 1 1 0 0 2 0 1 0 0 2 0 0 0 1 0 0 0 1 1 0 0 0 0 0 0 1 1 0
         1 0 1 0 2 0 1 1 1 1 2 0 1 0 1 2 1]
         [0 1 1 2 3 1 2 1 0 0 3 2 0 1 1 1 1 1 1 1 2 0 1 2 1 1 1 0 0 1 0 2 0
         1 0 0 1 3 1 1 1 0 1 0 0 1 0 0 0 0]
         [1 0 2 2 0 0 0 1 1 0 0 0 0 2 2 2 1 0 1 1 1 0 0 0 0 0 0 0 1 0 2 1 1
         0 3 0 0 1 0 0 1 0 0 3 4 2 2 3 1 2]
         [2 0 0 0 0 0 0 1 1 1 1 0 1 0 1 1 0 1 1 0 0 2 1 1 0 0 2 1 0 2 0 2 0
         1 1 0 0 1 2 0 0 0 0 0 1 0 1 2 2 0]
         [1 3 1 0 1 2 1 2 0 1 1 0 1 0 1 0 2 0 0 0 0 1 2 1 1 0 2 1 2 1 2 0 1
         1 0 2 0 1 0 1 1 2 0 0 1 1 3 0 1 1]
         [1 1 0 0 1 1 0 2 1 1 0 0 0 0 0 3 0 1 0 0 2 3 0 1 0 0 0 0 0 1 0 1 0
         1 2 1 1 3 1 1 0 1 0 2 2 1 1 1 1 2]
         [1 0 0 1 0 2 1 1 2 1 0 2 1 1 1 1 0 0 1 1 1 1 0 0 1 0 1 1 1 0 1 1 1
         0 3 5 1 2 0 0 0 0 1 1 1 2 1 1 1 0]
         [1 0 2 1 0 0 1 0 0 0 2 0 1 1 1 1 0 0 0 0 1 1 0 0 0 1 0 0 0 3 1 0 2
         3 0 0 2 1 0 0 0 1 2 2 3 1 1 1 0 0]
         [1 1 1 1 0 0 0 1 2 1 2 0 0 0 0 0 1 2 2 0 0 2 2 0 0 0 1 1 0 0 0 2 1
         5 0 0 0 0 1 0 3 0 1 0 1 1 0 0 0 1]
         [3 1 2 1 0 0 0 1 0 3 0 1 1 0 0 1 0 1 1 2 1 5 0 0 1 0 0 0 1 0 0 0 1
         1 2 0 0 0 2 1 1 1 0 1 0 0 1 1 2 0]
         [0 1 1 1 0 0 0 1 1 0 1 1 1 3 1 0 1 0 0 0 0 0 1 0 1 2 3 2 3 1 1 1 3
         2 1 0 0 0 0 3 0 1 1 0 1 1 1 1 0 0]
         [5 0 4 1 1 0 0 1 0 2 1 0 0 0 0 0 0 0 0 1 0 2 2 0 2 0 0 0 1 0 2 0 1
         0 0 1 2 0 0 0 1 2 0 1 1 1 0 0 0 0]
         [2 2 1 0 3 0 2 2 1 1 0 0 0 0 1 1 2 0 2 3 1 0 0 0 1 2 1 1 1 0 0 1 1
         0 0 0 1 3 0 0 0 1 1 1 1 1 0 1 1 1]
         [2 0 0 1 2 0 1 0 0 0 2 0 1 2 1 0 1 1 1 0 0 0 0 1 0 0 1 1 1 1 0 1 0
         0 0 3 1 0 1 0 0 1 1 0 2 2 0 0 1 1]
         [1 0 1 1 0 1 3 1 2 2 1 0 1 0 0 2 2 0 0 2 3 2 0 0 0 0 0 1 0 0 0 2 1
         0 1 0 1 1 2 1 1 0 2 0 2 0 0 2 1 0]
         [0 1 1 0 2 1 0 3 0 0 0 1 0 0 2 1 0 1 0 0 1 0 2 0 2 0 0 1 1 0 0 0 0
         1 2 1 0 1 0 1 1 2 0 0 1 1 2 2 0 0]
         [0 2 2 3 1 0 1 0 0 2 1 0 1 1 2 1 3 1 0 3 3 0 1 2 0 0 1 2 0 3 0 0 2
         1 2 0 1 0 1 1 0 0 0 0 0 1 2 0 0 2]
         [0 0 0 1 1 1 2 1 0 0 1 1 0 0 0 1 1 0 1 0 0 3 1 0 1 1 0 0 0 4 1 1 2
         1 3 1 0 1 1 1 2 2 1 0 0 2 2 1 0 1]
         [1 0 0 1 0 1 0 1 0 2 2 1 0 0 0 1 2 0 1 1 0 1 1 1 0 1 2 1 1 2 0 1 1
         2 1 1 0 1 1 1 2 0 1 1 2 0 1 1 3 2]
         [0 1 1 0 1 3 0 1 2 2 1 0 2 1 0 0 0 2 0 0 1 1 0 1 3 2 0 0 0 2 1 3 1
         1 1 0 1 1 0 0 0 0 2 2 2 1 0 0 1 3]
         [0 0 0 1 1 1 1 2 0 1 1 1 0 1 1 0 3 0 1 1 0 1 1 0 0 1 1 1 0 3 2 0 1
         1 1 0 1 1 0 1 0 2 2 0 1 1 0 0 1 0]
         [1 1 0 2 2 1 0 1 0 0 2 1 1 0 2 1 1 0 1 1 0 1 0 1 2 1 1 2 0 1 2 1 1
         1 0 0 2 0 0 1 1 1 0 0 0 3 1 1 0 1]
         [0 1 1 0 1 0 1 0 0 2 1 3 0 0 1 0 0 2 0 0 0 2 0 2 3 1 1 1 0 2 0 1 2
         0 0 1 0 0 0 1 1 0 0 2 1 2 3 0 1 0]]

<<< post process


<<< done

